N = 11;
H = 6;
T = 2;

avail = array3d(1..N, 1..H, 1..T, [4, 10, 8, 1, 5, 1, 0, 8, 3, 5, 8, 10, 10, 6, 4, 8, 5, 2, 5, 3, 3, 3, 4, 7, 7, 9, 4, 8, 4, 6, 7, 6, 5, 6, 0, 9, 3, 6, 3, 0, 6, 8, 4, 0, 9, 2, 10, 8, 10, 7, 3, 10, 1, 4, 1, 0, 1, 10, 6, 0, 3, 5, 2, 6, 5, 3, 0, 5, 9, 2, 4, 8, 0, 8, 0, 0, 8, 2, 5, 10, 2, 5, 4, 10, 10, 2, 3, 0, 2, 3, 1, 4, 4, 9, 7, 2, 0, 8, 2, 3, 0, 10, 2, 6, 7, 5, 9, 7, 2, 3, 7, 3, 10, 5, 3, 1, 8, 0, 6, 4, 1, 6, 0, 0, 4, 6, 8, 4, 4, 1, 7, 7]);

r = array2d(1..H, 1..T, [4, 0, 3, 5, 4, 3, 0, 2, 2, 3, 0, 5]);
